letting n =  10
letting blocks =  [[1, 5], [1, 8], [1, 10], [2, 5], [2, 7], [3, 1], [3, 7], [4, 5], [4, 6], [4, 8], [4, 10], [5, 1], [6, 5], [6, 6], [6, 7], [6, 8], [6, 10], [8, 1], [8, 9], [10, 4], [10, 7], [10, 9]]
